Data path: /scratch/opt/lxu/CFLG/benchmarks/random_B
Instance: r_40_0.1_84.txt
Result path: /scratch/opt/lxu/CFLG/results/random_B
Solver: Gurobi
Time limit: 7200
Formulation: LEFPV
Cover: Large
julia --project=. src/main.jl /scratch/opt/lxu/CFLG/benchmarks/random_B r_40_0.1_84.txt /scratch/opt/lxu/CFLG/results/random_B Gurobi 7200 LEFPV Large
The latest version of Julia in the `release` channel is 1.11.5+0.x64.linux.gnu. You currently have `1.11.4+0.x64.linux.gnu` installed. Run:

  juliaup update

in your terminal shell to install Julia 1.11.5+0.x64.linux.gnu and update the `release` channel to that version.
/scratch/opt/lxu/CFLG/benchmarks/random_B Gurobi 7200.0 /scratch/opt/lxu/CFLG/results/random_B r_40_0.1_84.txt LEFPV Large
/scratch/opt/lxu/CFLG/benchmarks/random_B/r_40_0.1_84.txt

 read graph
data loaded

problem_graph/original graph: node: 40/40 edge: 84/84 dlt: 1.2137849027573164 break_avg_len: 0.6068924513786582 break_max_len: 0.9739273588152333Set parameter TokenServer to value "solice01.zib.de"
Set parameter Threads to value 1
Set parameter OutputFlag to value 1
Gurobi Optimizer version 12.0.1 build v12.0.1rc0 (linux64 - "Debian GNU/Linux 12 (bookworm)")

CPU model: Intel(R) Xeon(R) Gold 5122 CPU @ 3.60GHz, instruction set [SSE2|AVX|AVX2|AVX512]
Thread count: 8 physical cores, 16 logical processors, using up to 1 threads

Non-default parameters:
Threads  1

Optimize a model with 124 rows, 252 columns and 420 nonzeros
Model fingerprint: 0xdfb3ba6c
Coefficient statistics:
  Matrix range     [1e+00, 1e+00]
  Objective range  [1e+00, 1e+00]
  Bounds range     [1e+00, 1e+00]
  RHS range        [1e+00, 1e+00]
Presolve removed 124 rows and 252 columns
Presolve time: 0.02s
Presolve: All rows and columns removed
Iteration    Objective       Primal Inf.    Dual Inf.      Time
       0    3.0000000e+00   0.000000e+00   0.000000e+00      0s

Solved in 0 iterations and 0.02 seconds (0.00 work units)
Optimal objective  3.000000000e+00

User-callback calls 35, time in user-callback 0.01 sec
elapsed CPU time: 1.234555 seconds
Set parameter TokenServer to value "solice01.zib.de"
Set parameter Threads to value 1
Set parameter OutputFlag to value 1
Set parameter MIPGap to value 0.0001
Set parameter MIPGapAbs to value 0.999998
Set parameter TimeLimit to value 7198.765445

 more cuts:falsefalse
3 0
formulation:LEFPV0 84 40
Set parameter PreCrush to value 1

 model loaded

Gurobi Optimizer version 12.0.1 build v12.0.1rc0 (linux64 - "Debian GNU/Linux 12 (bookworm)")

CPU model: Intel(R) Xeon(R) Gold 5122 CPU @ 3.60GHz, instruction set [SSE2|AVX|AVX2|AVX512]
Thread count: 8 physical cores, 16 logical processors, using up to 1 threads

Non-default parameters:
TimeLimit  7198.765445
MIPGapAbs  0.999998
PreCrush  1
Threads  1

Optimize a model with 6265 rows, 3107 columns and 18505 nonzeros
Model fingerprint: 0x9d011a7f
Variable types: 208 continuous, 2899 integer (2899 binary)
Coefficient statistics:
  Matrix range     [1e-06, 2e+00]
  Objective range  [1e+00, 1e+00]
  Bounds range     [3e-01, 1e+00]
  RHS range        [3e-01, 8e+00]
Found heuristic solution: objective 27.0000000
Presolve removed 1071 rows and 161 columns
Presolve time: 0.06s
Presolved: 5194 rows, 2946 columns, 17033 nonzeros
Variable types: 121 continuous, 2825 integer (2825 binary)

Root relaxation: objective 1.117804e+00, 1978 iterations, 0.05 seconds (0.08 work units)

    Nodes    |    Current Node    |     Objective Bounds      |     Work
 Expl Unexpl |  Obj  Depth IntInf | Incumbent    BestBd   Gap | It/Node Time

     0     0    1.11780    0  161   27.00000    1.11780  95.9%     -    0s
H    0     0                      17.0000000    1.11780  93.4%     -    0s
H    0     0                      12.0000000    1.11780  90.7%     -    0s
H    0     0                      11.0000000    1.11780  89.8%     -    0s
elapsed CPU time: 1.3856445987394521e13 seconds
     0     0    2.59933    0  139   11.00000    2.59933  76.4%     -    1s
H    0     0                      10.0000000    2.62024  73.8%     -    1s
H    0     0                       9.0000000    2.62024  70.9%     -    1s
H    0     0                       8.0000000    2.62024  67.2%     -    1s
H    0     0                       7.0000000    2.62024  62.6%     -    1s
elapsed CPU time: 0.053498 seconds
     0     0    2.62024    0  144    7.00000    2.62024  62.6%     -    1s
elapsed CPU time: 0.018399 seconds
     0     0    2.62024    0  141    7.00000    2.62024  62.6%     -    1s
elapsed CPU time: 0.018103 seconds
     0     0    2.83972    0  163    7.00000    2.83972  59.4%     -    1s
elapsed CPU time: 0.034893 seconds
     0     0    2.85044    0  193    7.00000    2.85044  59.3%     -    1s
elapsed CPU time: 0.018207 seconds
     0     0    2.85194    0  209    7.00000    2.85194  59.3%     -    1s
elapsed CPU time: 0.025009 seconds
     0     0    2.85194    0  211    7.00000    2.85194  59.3%     -    1s
elapsed CPU time: 0.01783 seconds
     0     0    3.40000    0  203    7.00000    3.40000  51.4%     -    1s
elapsed CPU time: 0.024023 seconds
     0     0    3.40000    0  182    7.00000    3.40000  51.4%     -    1s
elapsed CPU time: 0.01849 seconds
     0     0    3.44828    0  196    7.00000    3.44828  50.7%     -    1s
elapsed CPU time: 0.024299 seconds
     0     0    3.60000    0  182    7.00000    3.60000  48.6%     -    1s
elapsed CPU time: 0.023221 seconds
     0     0    3.60000    0  165    7.00000    3.60000  48.6%     -    1s
elapsed CPU time: 0.022733 seconds
     0     0    3.60000    0  164    7.00000    3.60000  48.6%     -    2s
elapsed CPU time: 0.028601 seconds
     0     0    3.60000    0  198    7.00000    3.60000  48.6%     -    2s
elapsed CPU time: 0.023273 seconds
     0     0    3.60000    0  221    7.00000    3.60000  48.6%     -    2s
elapsed CPU time: 0.022175 seconds
     0     0    3.60000    0  173    7.00000    3.60000  48.6%     -    2s
elapsed CPU time: 0.022454 seconds
     0     0    3.60000    0  169    7.00000    3.60000  48.6%     -    2s
elapsed CPU time: 0.022459 seconds
     0     0    3.60000    0  196    7.00000    3.60000  48.6%     -    2s
elapsed CPU time: 0.022258 seconds
     0     0    3.66667    0  203    7.00000    3.66667  47.6%     -    2s
elapsed CPU time: 0.021591 seconds
     0     0    3.66667    0  164    7.00000    3.66667  47.6%     -    2s
elapsed CPU time: 0.022409 seconds
     0     0    3.66667    0  223    7.00000    3.66667  47.6%     -    2s
elapsed CPU time: 0.022078 seconds
     0     0    3.66667    0  229    7.00000    3.66667  47.6%     -    2s
elapsed CPU time: 0.02222 seconds
     0     0    3.66667    0  224    7.00000    3.66667  47.6%     -    2s
elapsed CPU time: 0.021693 seconds
     0     0    3.66667    0  217    7.00000    3.66667  47.6%     -    2s
elapsed CPU time: 0.021411 seconds
     0     0    3.66667    0  233    7.00000    3.66667  47.6%     -    2s
elapsed CPU time: 0.021597 seconds
     0     0    3.66667    0  199    7.00000    3.66667  47.6%     -    3s
elapsed CPU time: 0.022631 seconds
elapsed CPU time: 0.022926 seconds
     0     2    3.66667    0  205    7.00000    3.66667  47.6%     -    3s
    82    62    4.09917    5  131    7.00000    3.95000  43.6%   132    5s
   628   444    4.10798    7  199    7.00000    4.01037  42.7%  88.6   10s
   643   454    5.00000   28  277    7.00000    4.03742  42.3%  86.5   15s
   661   466    4.29578    7  245    7.00000    4.17368  40.4%  84.2   20s
H  667   445                       6.0000000    4.21410  29.8%  83.4   22s
   746   448    4.66667   21  163    6.00000    4.39613  26.7%   157   25s
   923   414     cutoff   32         6.00000    4.66667  22.2%   174   30s
  1078   362    5.00000   28   99    6.00000    5.00000  16.7%   175   35s
  1330   254    5.00000   30  140    6.00000    5.00000  16.7%   172   40s
  1529   182    5.00000   33  116    6.00000    5.00000  16.7%   178   45s
  1801    78     cutoff   24         6.00000    5.00000  16.7%   177   50s
  2315    16     cutoff   45         6.00000    5.00000  16.7%   155   55s

Cutting planes:
  Learned: 5
  Cover: 28
  Implied bound: 6
  Clique: 2
  MIR: 21
  StrongCG: 3
  Flow cover: 36
  GUB cover: 40
  Zero half: 26
  RLT: 19
  Relax-and-lift: 2
  BQP: 1

Explored 2572 nodes (407094 simplex iterations) in 58.43 seconds (67.19 work units)
Thread count was 1 (of 16 available processors)

Solution count 10: 6 7 8 ... 17

Optimal solution found (tolerance 1.00e-04)
Best objective 6.000000000000e+00, best bound 6.000000000000e+00, gap 0.0000%

User-callback calls 19505, time in user-callback 2.13 sec

 sepatime1.3856445987395152e13 31685 28
6.0Stat(MathOptInterface.OPTIMAL, 6.0, 6.0, 0.0, 1.3856445987395152e13, 1.234555, 58.430147886276245, 2572, Main.CFLG.LEFPV, "", #undef)
